2
32
47
40	23
1	1	12	7	
2	1	7	9	
3	1	6	12	
4	2	7	12	23	3	
5	1	5	12	
6	1	5	8	
7	2	22	4	20	3	
8	2	6	14	9	8	
9	2	13	8	9	6	
10	1	7	14	
11	1	12	6	
12	1	6	8	
13	1	6	9	
14	1	13	8	
15	1	13	10	
16	2	4	17	23	2	
17	2	14	7	22	3	
18	2	8	12	17	3	
19	1	9	6	
20	1	5	9	
21	1	11	9	
22	2	7	11	22	4	
23	1	6	13	
24	2	6	16	15	9	
25	1	8	10	
26	2	8	11	7	13	
27	1	18	8	
28	2	6	13	20	3	
29	2	5	9	22	2	
30	2	17	10	5	10	
31	2	6	8	8	9	
32	2	5	13	8	8	
